; benchmark generated from python API
(set-info :status unknown)
(declare-fun x_months () Int)
(declare-fun x_beta () Int)
(assert
 (<= (- 1200) x_months))
(assert
 (>= 1199 x_months))
(assert
 (>= x_beta 0))
(assert
 (let ((?x2329 (+ x_months 24003)))
 (let ((?x4038 (- ?x2329 (* (div (- ?x2329 1) 12) 12))))
 (let ((?x1910 (ite (or (= ?x4038 4) (= ?x4038 6) (= ?x4038 9) (= ?x4038 11)) 30 31)))
 (let (($x3040 (and (= (mod (div (- ?x2329 1) 12) 4) 0) (and (distinct (mod (div (- ?x2329 1) 12) 100) 0) true))))
 (let ((?x3353 (ite (or $x3040 (= (mod (div (- ?x2329 1) 12) 400) 0)) 29 28)))
 (< x_beta (ite (= ?x4038 2) ?x3353 ?x1910))))))))
(assert
 (let (($x1448 (and (= x_months (- (+ (* 2020 12) 2) 24003)) (<= 27 x_beta))))
 (or (> x_months (- (+ (* 2020 12) 2) 24003)) $x1448)))
(assert
 (let (($x3379 (and (= x_months (- (+ (* 2020 12) 3) 24003)) (>= 0 x_beta))))
 (or (< x_months (- (+ (* 2020 12) 3) 24003)) $x3379)))
(assert
 (let ((?x614 (+ x_beta 1)))
(let ((?x3268 (+ (+ x_months 0) 24003)))
(let ((?x3833 (- ?x3268 (* (div (- ?x3268 1) 12) 12))))
(let ((?x4438 (ite (or (= ?x3833 4) (= ?x3833 6) (= ?x3833 9) (= ?x3833 11)) 30 31)))
(let (($x821 (and (= (mod (div (- ?x3268 1) 12) 4) 0) (and (distinct (mod (div (- ?x3268 1) 12) 100) 0) true))))
(let (($x3499 (or $x821 (= (mod (div (- ?x3268 1) 12) 400) 0))))
(let ((?x3501 (ite (= ?x3833 2) (ite $x3499 29 28) ?x4438)))
(let ((?x992 (ite (> 1 ?x614) 1 (ite (> ?x614 ?x3501) ?x3501 ?x614))))
(let ((?x3339 (ite (> 1 ?x992) 1 (ite (> ?x992 ?x3501) ?x3501 ?x992))))
(let ((?x3179 (ite (= 2 ?x3833) (ite $x3499 31 31) (ite (= 1 ?x3833) (ite $x3499 0 0) 0))))
(let ((?x1023 (ite (= 4 ?x3833) (ite $x3499 91 90) (ite (= 3 ?x3833) (ite $x3499 60 59) ?x3179))))
(let ((?x600 (ite (= 6 ?x3833) (ite $x3499 152 151) (ite (= 5 ?x3833) (ite $x3499 121 120) ?x1023))))
(let ((?x3880 (ite (= 8 ?x3833) (ite $x3499 213 212) (ite (= 7 ?x3833) (ite $x3499 182 181) ?x600))))
(let ((?x1107 (ite (= 10 ?x3833) (ite $x3499 274 273) (ite (= 9 ?x3833) (ite $x3499 244 243) ?x3880))))
(let ((?x3189 (ite (= 12 ?x3833) (ite $x3499 335 334) (ite (= 11 ?x3833) (ite $x3499 305 304) ?x1107))))
(let ((?x2877 (+ (* 365 (- (div (- ?x3268 1) 12) 1)) (div (- (div (- ?x3268 1) 12) 1) 4))))
(let ((?x2751 (+ (- ?x2877 (div (- (div (- ?x3268 1) 12) 1) 100)) (div (- (div (- ?x3268 1) 12) 1) 400))))
(let ((?x2909 (+ (+ (- (+ (+ ?x2751 ?x3189) (- ?x3339 1)) 730179) 1) 730179)))
(let ((?x3044 (mod ?x2909 146097)))
(let ((?x4322 (div ?x3044 36524)))
(let ((?x4425 (ite (<= 4 ?x4322) 3 ?x4322)))
(let ((?x4071 (- ?x3044 (* ?x4425 36524))))
(let ((?x506 (mod ?x4071 1461)))
(let ((?x1167 (div ?x506 365)))
(let ((?x2362 (ite (<= 4 ?x1167) 3 ?x1167)))
(let ((?x2217 (+ (+ (* (div ?x2909 146097) 400) (* ?x4425 100)) (* (div ?x4071 1461) 4))))
(let ((?x1210 (+ (+ ?x2217 ?x2362) 1)))
(let (($x2182 (or (and (= (mod ?x1210 4) 0) (and (distinct (mod ?x1210 100) 0) true)) (= (mod ?x1210 400) 0))))
(let ((?x4318 (- ?x506 (* ?x2362 365))))
(let ((?x2934 (ite $x2182 31 31)))
(let (($x2882 (>= ?x4318 ?x2934)))
(let ((?x2494 (ite $x2882 (+ (- ?x4318 ?x2934) 1) (+ (- ?x4318 (ite $x2182 0 0)) 1))))
(let ((?x1363 (ite $x2182 60 59)))
(let (($x3916 (>= ?x4318 ?x1363)))
(let ((?x4321 (ite $x2182 91 90)))
(let (($x2841 (>= ?x4318 ?x4321)))
(let ((?x2888 (ite $x2841 (+ (- ?x4318 ?x4321) 1) (ite $x3916 (+ (- ?x4318 ?x1363) 1) ?x2494))))
(let ((?x4320 (ite $x2182 121 120)))
(let (($x3329 (>= ?x4318 ?x4320)))
(let ((?x1367 (ite $x2182 152 151)))
(let (($x4296 (>= ?x4318 ?x1367)))
(let ((?x2591 (ite $x4296 (+ (- ?x4318 ?x1367) 1) (ite $x3329 (+ (- ?x4318 ?x4320) 1) ?x2888))))
(let ((?x615 (ite $x2182 182 181)))
(let (($x1961 (>= ?x4318 ?x615)))
(let ((?x2029 (ite $x2182 213 212)))
(let (($x2858 (>= ?x4318 ?x2029)))
(let ((?x4371 (ite $x2858 (+ (- ?x4318 ?x2029) 1) (ite $x1961 (+ (- ?x4318 ?x615) 1) ?x2591))))
(let ((?x790 (ite $x2182 244 243)))
(let (($x2780 (>= ?x4318 ?x790)))
(let ((?x3146 (ite $x2182 274 273)))
(let (($x564 (>= ?x4318 ?x3146)))
(let ((?x3410 (ite $x564 (+ (- ?x4318 ?x3146) 1) (ite $x2780 (+ (- ?x4318 ?x790) 1) ?x4371))))
(let ((?x3999 (ite $x2182 305 304)))
(let (($x2186 (>= ?x4318 ?x3999)))
(let ((?x1080 (ite $x2182 335 334)))
(let (($x3378 (>= ?x4318 ?x1080)))
(let ((?x502 (ite $x3378 (+ (- ?x4318 ?x1080) 1) (ite $x2186 (+ (- ?x4318 ?x3999) 1) ?x3410))))
(let (($x1883 (= 1 0)))
(let ((?x2094 (- (+ (* 2020 12) 3) 24003)))
(let ((?x2406 (ite $x3329 5 (ite $x2841 4 (ite $x3916 3 (ite $x2882 2 1))))))
(let ((?x1726 (ite $x2780 9 (ite $x2858 8 (ite $x1961 7 (ite $x4296 6 ?x2406))))))
(let ((?x3365 (ite $x3378 12 (ite $x2186 11 (ite $x564 10 ?x1726)))))
(let ((?x3300 (+ (* (ite $x1883 (div (- ?x3268 1) 12) ?x1210) 12) (ite $x1883 ?x3833 ?x3365))))
(and (= (- ?x3300 24003) ?x2094) (= 0 (- (ite $x1883 ?x3339 ?x502) 1)))))))))))))))))))))))))))))))))))))))))))))))))))))))))))))))))))
(check-sat)
